language Essence 1.3

letting costTC be
        function((1, 1) --> 1, (1, 2) --> 1, (1, 3) --> 1, (1, 4) --> 1, (1, 5) --> 1, (2, 1) --> 1, (2, 2) --> 1,
                 (2, 3) --> 1, (2, 4) --> 1, (2, 5) --> 1, (3, 1) --> 1, (3, 2) --> 1, (3, 3) --> 1, (3, 4) --> 1,
                 (3, 5) --> 1, (4, 1) --> 1, (4, 2) --> 1, (4, 3) --> 1, (4, 4) --> 1, (4, 5) --> 1, (5, 1) --> 1,
                 (5, 2) --> 1, (5, 3) --> 1, (5, 4) --> 1, (5, 5) --> 1, (6, 1) --> 1, (6, 2) --> 1, (6, 3) --> 1,
                 (6, 4) --> 1, (6, 5) --> 1, (7, 1) --> 1, (7, 2) --> 1, (7, 3) --> 1, (7, 4) --> 1, (7, 5) --> 1,
                 (8, 1) --> 1, (8, 2) --> 1, (8, 3) --> 1, (8, 4) --> 1, (8, 5) --> 1, (9, 1) --> 1, (9, 2) --> 1,
                 (9, 3) --> 1, (9, 4) --> 1, (9, 5) --> 1, (10, 1) --> 1, (10, 2) --> 1, (10, 3) --> 1, (10, 4) --> 1,
                 (10, 5) --> 1, (11, 1) --> 1, (11, 2) --> 1, (11, 3) --> 1, (11, 4) --> 1, (11, 5) --> 1,
                 (12, 1) --> 1, (12, 2) --> 1, (12, 3) --> 1, (12, 4) --> 1, (12, 5) --> 1, (13, 1) --> 1,
                 (13, 2) --> 1, (13, 3) --> 1, (13, 4) --> 1, (13, 5) --> 1, (14, 1) --> 1, (14, 2) --> 1,
                 (14, 3) --> 1, (14, 4) --> 1, (14, 5) --> 1, (15, 1) --> 1, (15, 2) --> 1, (15, 3) --> 1,
                 (15, 4) --> 1, (15, 5) --> 1, (16, 1) --> 1, (16, 2) --> 1, (16, 3) --> 1, (16, 4) --> 1,
                 (16, 5) --> 1, (17, 1) --> 1, (17, 2) --> 1, (17, 3) --> 1, (17, 4) --> 1, (17, 5) --> 1,
                 (18, 1) --> 1, (18, 2) --> 1, (18, 3) --> 1, (18, 4) --> 1, (18, 5) --> 1, (19, 1) --> 1,
                 (19, 2) --> 1, (19, 3) --> 1, (19, 4) --> 1, (19, 5) --> 1, (20, 1) --> 1, (20, 2) --> 1,
                 (20, 3) --> 1, (20, 4) --> 1, (20, 5) --> 1, (21, 1) --> 1, (21, 2) --> 1, (21, 3) --> 1,
                 (21, 4) --> 1, (21, 5) --> 1, (22, 1) --> 1, (22, 2) --> 1, (22, 3) --> 1, (22, 4) --> 1,
                 (22, 5) --> 1)
letting costWT be
        function((1, 1) --> 1, (1, 2) --> 2, (1, 3) --> 1, (1, 4) --> 2, (1, 5) --> 1, (1, 6) --> 2, (1, 7) --> 2,
                 (1, 8) --> 2, (1, 9) --> 1, (1, 10) --> 1, (1, 11) --> 2, (1, 12) --> 1, (1, 13) --> 1, (1, 14) --> 2,
                 (1, 15) --> 1, (1, 16) --> 1, (1, 17) --> 1, (1, 18) --> 2, (1, 19) --> 2, (1, 20) --> 1,
                 (1, 21) --> 2, (1, 22) --> 1, (2, 1) --> 1, (2, 2) --> 2, (2, 3) --> 2, (2, 4) --> 1, (2, 5) --> 2,
                 (2, 6) --> 1, (2, 7) --> 2, (2, 8) --> 2, (2, 9) --> 1, (2, 10) --> 2, (2, 11) --> 1, (2, 12) --> 2,
                 (2, 13) --> 1, (2, 14) --> 1, (2, 15) --> 2, (2, 16) --> 1, (2, 17) --> 2, (2, 18) --> 1,
                 (2, 19) --> 1, (2, 20) --> 1, (2, 21) --> 1, (2, 22) --> 1, (3, 1) --> 1, (3, 2) --> 2, (3, 3) --> 2,
                 (3, 4) --> 2, (3, 5) --> 2, (3, 6) --> 1, (3, 7) --> 2, (3, 8) --> 2, (3, 9) --> 1, (3, 10) --> 1,
                 (3, 11) --> 2, (3, 12) --> 2, (3, 13) --> 1, (3, 14) --> 2, (3, 15) --> 2, (3, 16) --> 2,
                 (3, 17) --> 1, (3, 18) --> 2, (3, 19) --> 1, (3, 20) --> 2, (3, 21) --> 1, (3, 22) --> 2, (4, 1) --> 2,
                 (4, 2) --> 1, (4, 3) --> 2, (4, 4) --> 2, (4, 5) --> 2, (4, 6) --> 2, (4, 7) --> 1, (4, 8) --> 2,
                 (4, 9) --> 1, (4, 10) --> 2, (4, 11) --> 2, (4, 12) --> 2, (4, 13) --> 2, (4, 14) --> 1, (4, 15) --> 1,
                 (4, 16) --> 2, (4, 17) --> 2, (4, 18) --> 1, (4, 19) --> 2, (4, 20) --> 2, (4, 21) --> 1,
                 (4, 22) --> 1, (5, 1) --> 2, (5, 2) --> 2, (5, 3) --> 1, (5, 4) --> 2, (5, 5) --> 2, (5, 6) --> 1,
                 (5, 7) --> 1, (5, 8) --> 1, (5, 9) --> 2, (5, 10) --> 2, (5, 11) --> 2, (5, 12) --> 2, (5, 13) --> 2,
                 (5, 14) --> 2, (5, 15) --> 1, (5, 16) --> 1, (5, 17) --> 1, (5, 18) --> 2, (5, 19) --> 2,
                 (5, 20) --> 2, (5, 21) --> 1, (5, 22) --> 2, (6, 1) --> 2, (6, 2) --> 1, (6, 3) --> 2, (6, 4) --> 2,
                 (6, 5) --> 2, (6, 6) --> 1, (6, 7) --> 2, (6, 8) --> 2, (6, 9) --> 2, (6, 10) --> 2, (6, 11) --> 1,
                 (6, 12) --> 1, (6, 13) --> 1, (6, 14) --> 2, (6, 15) --> 1, (6, 16) --> 2, (6, 17) --> 1,
                 (6, 18) --> 1, (6, 19) --> 2, (6, 20) --> 1, (6, 21) --> 2, (6, 22) --> 2, (7, 1) --> 1, (7, 2) --> 2,
                 (7, 3) --> 1, (7, 4) --> 1, (7, 5) --> 2, (7, 6) --> 1, (7, 7) --> 1, (7, 8) --> 1, (7, 9) --> 2,
                 (7, 10) --> 2, (7, 11) --> 1, (7, 12) --> 1, (7, 13) --> 1, (7, 14) --> 2, (7, 15) --> 2,
                 (7, 16) --> 2, (7, 17) --> 1, (7, 18) --> 1, (7, 19) --> 1, (7, 20) --> 2, (7, 21) --> 2,
                 (7, 22) --> 2, (8, 1) --> 2, (8, 2) --> 1, (8, 3) --> 2, (8, 4) --> 1, (8, 5) --> 2, (8, 6) --> 1,
                 (8, 7) --> 2, (8, 8) --> 2, (8, 9) --> 1, (8, 10) --> 2, (8, 11) --> 1, (8, 12) --> 2, (8, 13) --> 2,
                 (8, 14) --> 2, (8, 15) --> 1, (8, 16) --> 2, (8, 17) --> 1, (8, 18) --> 2, (8, 19) --> 2,
                 (8, 20) --> 1, (8, 21) --> 2, (8, 22) --> 1, (9, 1) --> 2, (9, 2) --> 1, (9, 3) --> 1, (9, 4) --> 1,
                 (9, 5) --> 2, (9, 6) --> 1, (9, 7) --> 1, (9, 8) --> 1, (9, 9) --> 1, (9, 10) --> 2, (9, 11) --> 1,
                 (9, 12) --> 1, (9, 13) --> 2, (9, 14) --> 1, (9, 15) --> 1, (9, 16) --> 1, (9, 17) --> 2,
                 (9, 18) --> 2, (9, 19) --> 1, (9, 20) --> 2, (9, 21) --> 2, (9, 22) --> 1, (10, 1) --> 1,
                 (10, 2) --> 2, (10, 3) --> 2, (10, 4) --> 1, (10, 5) --> 1, (10, 6) --> 1, (10, 7) --> 2,
                 (10, 8) --> 2, (10, 9) --> 1, (10, 10) --> 1, (10, 11) --> 2, (10, 12) --> 2, (10, 13) --> 1,
                 (10, 14) --> 1, (10, 15) --> 2, (10, 16) --> 1, (10, 17) --> 2, (10, 18) --> 1, (10, 19) --> 2,
                 (10, 20) --> 2, (10, 21) --> 1, (10, 22) --> 1, (11, 1) --> 2, (11, 2) --> 1, (11, 3) --> 2,
                 (11, 4) --> 1, (11, 5) --> 1, (11, 6) --> 2, (11, 7) --> 2, (11, 8) --> 2, (11, 9) --> 2,
                 (11, 10) --> 2, (11, 11) --> 1, (11, 12) --> 2, (11, 13) --> 1, (11, 14) --> 2, (11, 15) --> 1,
                 (11, 16) --> 2, (11, 17) --> 2, (11, 18) --> 1, (11, 19) --> 2, (11, 20) --> 1, (11, 21) --> 1,
                 (11, 22) --> 2, (12, 1) --> 2, (12, 2) --> 1, (12, 3) --> 1, (12, 4) --> 1, (12, 5) --> 1,
                 (12, 6) --> 1, (12, 7) --> 1, (12, 8) --> 2, (12, 9) --> 1, (12, 10) --> 1, (12, 11) --> 1,
                 (12, 12) --> 2, (12, 13) --> 1, (12, 14) --> 1, (12, 15) --> 2, (12, 16) --> 2, (12, 17) --> 2,
                 (12, 18) --> 2, (12, 19) --> 2, (12, 20) --> 2, (12, 21) --> 2, (12, 22) --> 2, (13, 1) --> 2,
                 (13, 2) --> 2, (13, 3) --> 1, (13, 4) --> 1, (13, 5) --> 1, (13, 6) --> 2, (13, 7) --> 1,
                 (13, 8) --> 2, (13, 9) --> 2, (13, 10) --> 1, (13, 11) --> 2, (13, 12) --> 1, (13, 13) --> 2,
                 (13, 14) --> 2, (13, 15) --> 2, (13, 16) --> 2, (13, 17) --> 1, (13, 18) --> 2, (13, 19) --> 1,
                 (13, 20) --> 2, (13, 21) --> 2, (13, 22) --> 1, (14, 1) --> 2, (14, 2) --> 1, (14, 3) --> 1,
                 (14, 4) --> 2, (14, 5) --> 1, (14, 6) --> 1, (14, 7) --> 1, (14, 8) --> 1, (14, 9) --> 1,
                 (14, 10) --> 2, (14, 11) --> 1, (14, 12) --> 2, (14, 13) --> 1, (14, 14) --> 1, (14, 15) --> 1,
                 (14, 16) --> 2, (14, 17) --> 2, (14, 18) --> 1, (14, 19) --> 1, (14, 20) --> 2, (14, 21) --> 1,
                 (14, 22) --> 1, (15, 1) --> 1, (15, 2) --> 1, (15, 3) --> 2, (15, 4) --> 2, (15, 5) --> 2,
                 (15, 6) --> 2, (15, 7) --> 1, (15, 8) --> 2, (15, 9) --> 1, (15, 10) --> 2, (15, 11) --> 2,
                 (15, 12) --> 2, (15, 13) --> 2, (15, 14) --> 1, (15, 15) --> 2, (15, 16) --> 1, (15, 17) --> 2,
                 (15, 18) --> 2, (15, 19) --> 2, (15, 20) --> 1, (15, 21) --> 2, (15, 22) --> 1, (16, 1) --> 2,
                 (16, 2) --> 1, (16, 3) --> 1, (16, 4) --> 2, (16, 5) --> 1, (16, 6) --> 1, (16, 7) --> 2,
                 (16, 8) --> 1, (16, 9) --> 2, (16, 10) --> 2, (16, 11) --> 1, (16, 12) --> 2, (16, 13) --> 2,
                 (16, 14) --> 1, (16, 15) --> 2, (16, 16) --> 2, (16, 17) --> 1, (16, 18) --> 1, (16, 19) --> 1,
                 (16, 20) --> 1, (16, 21) --> 1, (16, 22) --> 1, (17, 1) --> 1, (17, 2) --> 2, (17, 3) --> 2,
                 (17, 4) --> 1, (17, 5) --> 1, (17, 6) --> 2, (17, 7) --> 1, (17, 8) --> 1, (17, 9) --> 2,
                 (17, 10) --> 1, (17, 11) --> 2, (17, 12) --> 1, (17, 13) --> 1, (17, 14) --> 2, (17, 15) --> 1,
                 (17, 16) --> 2, (17, 17) --> 1, (17, 18) --> 1, (17, 19) --> 2, (17, 20) --> 1, (17, 21) --> 2,
                 (17, 22) --> 2, (18, 1) --> 1, (18, 2) --> 2, (18, 3) --> 2, (18, 4) --> 1, (18, 5) --> 1,
                 (18, 6) --> 2, (18, 7) --> 2, (18, 8) --> 1, (18, 9) --> 1, (18, 10) --> 2, (18, 11) --> 1,
                 (18, 12) --> 1, (18, 13) --> 2, (18, 14) --> 2, (18, 15) --> 1, (18, 16) --> 2, (18, 17) --> 2,
                 (18, 18) --> 1, (18, 19) --> 1, (18, 20) --> 2, (18, 21) --> 1, (18, 22) --> 2, (19, 1) --> 1,
                 (19, 2) --> 2, (19, 3) --> 2, (19, 4) --> 1, (19, 5) --> 1, (19, 6) --> 2, (19, 7) --> 1,
                 (19, 8) --> 1, (19, 9) --> 2, (19, 10) --> 1, (19, 11) --> 1, (19, 12) --> 2, (19, 13) --> 1,
                 (19, 14) --> 2, (19, 15) --> 2, (19, 16) --> 1, (19, 17) --> 2, (19, 18) --> 1, (19, 19) --> 1,
                 (19, 20) --> 2, (19, 21) --> 2, (19, 22) --> 1, (20, 1) --> 1, (20, 2) --> 1, (20, 3) --> 1,
                 (20, 4) --> 2, (20, 5) --> 2, (20, 6) --> 2, (20, 7) --> 1, (20, 8) --> 2, (20, 9) --> 2,
                 (20, 10) --> 1, (20, 11) --> 1, (20, 12) --> 1, (20, 13) --> 1, (20, 14) --> 1, (20, 15) --> 2,
                 (20, 16) --> 1, (20, 17) --> 1, (20, 18) --> 1, (20, 19) --> 1, (20, 20) --> 2, (20, 21) --> 1,
                 (20, 22) --> 2, (21, 1) --> 2, (21, 2) --> 2, (21, 3) --> 1, (21, 4) --> 2, (21, 5) --> 2,
                 (21, 6) --> 1, (21, 7) --> 1, (21, 8) --> 1, (21, 9) --> 1, (21, 10) --> 2, (21, 11) --> 2,
                 (21, 12) --> 2, (21, 13) --> 1, (21, 14) --> 2, (21, 15) --> 1, (21, 16) --> 1, (21, 17) --> 2,
                 (21, 18) --> 1, (21, 19) --> 2, (21, 20) --> 1, (21, 21) --> 2, (21, 22) --> 1, (22, 1) --> 2,
                 (22, 2) --> 1, (22, 3) --> 1, (22, 4) --> 1, (22, 5) --> 1, (22, 6) --> 1, (22, 7) --> 2,
                 (22, 8) --> 2, (22, 9) --> 2, (22, 10) --> 2, (22, 11) --> 2, (22, 12) --> 1, (22, 13) --> 1,
                 (22, 14) --> 1, (22, 15) --> 1, (22, 16) --> 2, (22, 17) --> 2, (22, 18) --> 1, (22, 19) --> 2,
                 (22, 20) --> 1, (22, 21) --> 2, (22, 22) --> 1, (23, 1) --> 1, (23, 2) --> 1, (23, 3) --> 1,
                 (23, 4) --> 1, (23, 5) --> 2, (23, 6) --> 2, (23, 7) --> 1, (23, 8) --> 2, (23, 9) --> 1,
                 (23, 10) --> 2, (23, 11) --> 2, (23, 12) --> 1, (23, 13) --> 1, (23, 14) --> 1, (23, 15) --> 2,
                 (23, 16) --> 1, (23, 17) --> 1, (23, 18) --> 2, (23, 19) --> 2, (23, 20) --> 2, (23, 21) --> 1,
                 (23, 22) --> 2, (24, 1) --> 1, (24, 2) --> 1, (24, 3) --> 2, (24, 4) --> 1, (24, 5) --> 2,
                 (24, 6) --> 1, (24, 7) --> 1, (24, 8) --> 1, (24, 9) --> 2, (24, 10) --> 2, (24, 11) --> 2,
                 (24, 12) --> 1, (24, 13) --> 1, (24, 14) --> 2, (24, 15) --> 1, (24, 16) --> 2, (24, 17) --> 2,
                 (24, 18) --> 1, (24, 19) --> 1, (24, 20) --> 2, (24, 21) --> 2, (24, 22) --> 2, (25, 1) --> 2,
                 (25, 2) --> 2, (25, 3) --> 2, (25, 4) --> 1, (25, 5) --> 1, (25, 6) --> 2, (25, 7) --> 2,
                 (25, 8) --> 2, (25, 9) --> 2, (25, 10) --> 1, (25, 11) --> 1, (25, 12) --> 2, (25, 13) --> 2,
                 (25, 14) --> 2, (25, 15) --> 1, (25, 16) --> 1, (25, 17) --> 1, (25, 18) --> 1, (25, 19) --> 2,
                 (25, 20) --> 2, (25, 21) --> 1, (25, 22) --> 2, (26, 1) --> 1, (26, 2) --> 2, (26, 3) --> 2,
                 (26, 4) --> 1, (26, 5) --> 1, (26, 6) --> 2, (26, 7) --> 1, (26, 8) --> 1, (26, 9) --> 1,
                 (26, 10) --> 2, (26, 11) --> 1, (26, 12) --> 1, (26, 13) --> 1, (26, 14) --> 1, (26, 15) --> 1,
                 (26, 16) --> 1, (26, 17) --> 1, (26, 18) --> 1, (26, 19) --> 1, (26, 20) --> 1, (26, 21) --> 2,
                 (26, 22) --> 2, (27, 1) --> 1, (27, 2) --> 1, (27, 3) --> 1, (27, 4) --> 2, (27, 5) --> 1,
                 (27, 6) --> 1, (27, 7) --> 1, (27, 8) --> 1, (27, 9) --> 1, (27, 10) --> 2, (27, 11) --> 1,
                 (27, 12) --> 1, (27, 13) --> 1, (27, 14) --> 2, (27, 15) --> 1, (27, 16) --> 2, (27, 17) --> 1,
                 (27, 18) --> 1, (27, 19) --> 2, (27, 20) --> 1, (27, 21) --> 1, (27, 22) --> 2)
letting demand be function(1 --> 46, 2 --> 48, 3 --> 24, 4 --> 23, 5 --> 37)
letting maxCost be 34
letting n_customer be 5
letting n_transshipment be 22
letting n_warehouses be 27
letting stock be
        function(1 --> 46, 2 --> 46, 3 --> 46, 4 --> 46, 5 --> 46, 6 --> 46, 7 --> 46, 8 --> 46, 9 --> 46, 10 --> 46,
                 11 --> 46, 12 --> 46, 13 --> 46, 14 --> 46, 15 --> 46, 16 --> 46, 17 --> 46, 18 --> 46, 19 --> 46,
                 20 --> 46, 21 --> 46, 22 --> 46, 23 --> 46, 24 --> 46, 25 --> 46, 26 --> 46, 27 --> 46)
